# Solution for model GasLib-40
# Objective value = 3.8439050570676208e+01
loadshed[innode_1] 0
loadshed[innode_2] 0
loadshed[innode_3] 0
loadshed[innode_4] 0
loadshed[innode_5] 0
loadshed[innode_6] 0
loadshed[innode_7] 0
loadshed[innode_8] 0
loadshed[source_1] -1.6879692800243618e-01
loadshed[source_2] 1.9390408553520211e-01
loadshed[source_3] 2.1803904418802977e-01
loadshed[sink_1] 0
loadshed[sink_2] 0
loadshed[sink_3] 0
loadshed[sink_4] 0
loadshed[sink_5] 0
loadshed[sink_6] 0
loadshed[sink_7] 0
loadshed[sink_8] 0
loadshed[sink_9] 0
loadshed[sink_10] 0
loadshed[sink_11] 0
loadshed[sink_12] 1
loadshed[sink_13] 0
loadshed[sink_14] 0
loadshed[sink_15] 0
loadshed[sink_16] 0
loadshed[sink_17] 0
loadshed[sink_18] 0
loadshed[sink_19] 0
loadshed[sink_20] 0
loadshed[sink_21] 1
loadshed[sink_22] 0
loadshed[sink_23] 0
loadshed[sink_24] 3.5041328330249411e-01
loadshed[sink_25] 0
loadshed[sink_26] 0
loadshed[sink_27] 0
loadshed[sink_28] 0
loadshed[sink_29] 0
flow[source_1,sink_3] 1.8477543101371845e+02
flow[innode_1,sink_16] 1.6354166666666970e+01
flow[innode_6,sink_13] -9.1412580490236124e+00
flow[sink_13,sink_14] -2.5495424715690280e+01
flow[sink_14,sink_10] -4.1849591382356948e+01
flow[sink_25,sink_26] 1.3394703807792223e+02
flow[sink_26,sink_9] 3.2708333333334551e+01
flow[sink_9,sink_18] 1.6354166666667879e+01
flow[sink_26,sink_4] 8.4884538077921036e+01
flow[sink_4,sink_20] 0
flow[sink_18,sink_6] 0
flow[sink_25,innode_8] -1.5206709768038206e+02
flow[sink_6,sink_7] -4.9062500000000313e+01
flow[sink_6,sink_22] 3.2708333333333641e+01
flow[sink_7,sink_24] 1.0623449429323793e+01
flow[sink_22,sink_1] 1.6354166666666970e+01
flow[sink_24,sink_21] 0
flow[sink_21,sink_12] 0
flow[sink_7,sink_5] -7.6040116095990768e+01
flow[sink_5,sink_17] -9.2394282762657440e+01
flow[sink_17,sink_4] -6.8530371411254350e+01
flow[sink_17,sink_8] -4.0218078018069789e+01
flow[sink_3,sink_23] 16.3541666666697
flow[sink_8,sink_20] -5.6572244684736461e+01
flow[sink_25,sink_20] 72.9264113514032
flow[sink_25,sink_15] -6.2019260366586721e+01
flow[sink_15,sink_29] -9.4727593699937643e+01
flow[sink_29,sink_28] 1.6354166666667879e+01
flow[sink_29,sink_2] 0
flow[sink_2,sink_15] -1.6354166666684250e+01
flow[sink_29,innode_7] -1.2743592703327168e+02
flow[innode_4,sink_19] 4.8104153322213676e+01
flow[sink_19,innode_3] 4.4364716854861250e+01
flow[innode_4,innode_5] 7.5516271393477311e+01
flow[sink_27,innode_5] -7.5516271393477311e+01
flow[sink_27,sink_19] 5.9162104726810639e+01
flow[sink_10,sink_11] 3.2708333333333641e+01
flow[sink_10,innode_2] -4.6547374527496004e+01
flow[sink_10,innode_3] -4.4364716854861250e+01
flow[innode_6,sink_25] 9.1412580490236124e+00
flow[sink_11,innode_1] 1.6354166666666970e+01
flow[sink_19,innode_2] 4.6547374527496004e+01
flow[source_3,innode_4] 1.2362042471569099e+02
flow[source_2,innode_7] 1.2743592703327168e+02
flow[sink_3,innode_8] 1.5206709768038206e+02
pressure[innode_1] 7.6452505880501050e+01
pressure[innode_2] 7.9064428178835868e+01
pressure[innode_3] 7.8966187537119978e+01
pressure[innode_4] 81.01325
pressure[innode_5] 8.0961305926550239e+01
pressure[innode_6] 7.4528759816418585e+01
pressure[innode_7] 81.01325
pressure[innode_8] 8.0395616320894277e+01
pressure[source_1] 81.01325
pressure[source_2] 81.01325
pressure[source_3] 81.01325
pressure[sink_1] 1.0401719243097340e+01
pressure[sink_2] 7.4776220912351548e+01
pressure[sink_3] 8.0395616320894277e+01
pressure[sink_4] 5.4302508725104872e+01
pressure[sink_5] 4.4800797680921193e+01
pressure[sink_6] 1.2502796853484712e+01
pressure[sink_7] 1.3176308031184844e+01
pressure[sink_8] 5.3201036469300540e+01
pressure[sink_9] 6.3137270419439083e+01
pressure[sink_10] 76.6042071881046
pressure[sink_11] 7.6452505880501050e+01
pressure[sink_12] 1.01325
pressure[sink_13] 7.4579154044396716e+01
pressure[sink_14] 7.4624780278655436e+01
pressure[sink_15] 7.4829613662117993e+01
pressure[sink_16] 7.5430856045683370e+01
pressure[sink_17] 5.1683503901681370e+01
pressure[sink_18] 6.2545527925639377e+01
pressure[sink_19] 7.9064428178835868e+01
pressure[sink_20] 5.7143326333016240e+01
pressure[sink_21] 1.01325
pressure[sink_22] 1.1465488385452350e+01
pressure[sink_23] 8.0230898309234490e+01
pressure[sink_24] 1.01325
pressure[sink_25] 7.4528759816418585e+01
pressure[sink_26] 6.5094948587323685e+01
pressure[sink_27] 8.0334660413050116e+01
pressure[sink_28] 7.7309555907913392e+01
pressure[sink_29] 7.7604838181530567e+01
interdiction[source_1,sink_3] 0
interdiction[innode_1,sink_16] 0
interdiction[innode_6,sink_13] 0
interdiction[sink_13,sink_14] 0
interdiction[sink_14,sink_10] 0
interdiction[sink_25,sink_26] 0
interdiction[sink_26,sink_9] 0
interdiction[sink_9,sink_18] 0
interdiction[sink_26,sink_4] 0
interdiction[sink_4,sink_20] 1
interdiction[sink_18,sink_6] 1
interdiction[sink_25,innode_8] 0
interdiction[sink_6,sink_7] 0
interdiction[sink_6,sink_22] 0
interdiction[sink_7,sink_24] 0
interdiction[sink_22,sink_1] 0
interdiction[sink_24,sink_21] 0
interdiction[sink_21,sink_12] 0
interdiction[sink_7,sink_5] 0
interdiction[sink_5,sink_17] 0
interdiction[sink_17,sink_4] 0
interdiction[sink_17,sink_8] 0
interdiction[sink_3,sink_23] 0
interdiction[sink_8,sink_20] 0
interdiction[sink_25,sink_20] 0
interdiction[sink_25,sink_15] 0
interdiction[sink_15,sink_29] 0
interdiction[sink_29,sink_28] 0
interdiction[sink_29,sink_2] 1
interdiction[sink_2,sink_15] 0
interdiction[sink_29,innode_7] 0
interdiction[innode_4,sink_19] 0
interdiction[sink_19,innode_3] 0
interdiction[innode_4,innode_5] 0
interdiction[sink_27,innode_5] 0
interdiction[sink_27,sink_19] 0
interdiction[sink_10,sink_11] 0
interdiction[sink_10,innode_2] 0
interdiction[sink_10,innode_3] 0
interdiction[innode_6,sink_25] 0
interdiction[sink_11,innode_1] 0
interdiction[sink_19,innode_2] 0
interdiction[source_3,innode_4] 0
interdiction[source_2,innode_7] 0
interdiction[sink_3,innode_8] 0
WCcheckFlow[source_1,sink_3] 39
WCcheckFlow[innode_1,sink_16] 1
WCcheckFlow[innode_6,sink_13] 13
WCcheckFlow[sink_13,sink_14] 12
WCcheckFlow[sink_14,sink_10] 11
WCcheckFlow[sink_25,sink_26] 15
WCcheckFlow[sink_26,sink_9] 2
WCcheckFlow[sink_9,sink_18] 1
WCcheckFlow[sink_26,sink_4] 12
WCcheckFlow[sink_4,sink_20] 0
WCcheckFlow[sink_18,sink_6] 0
WCcheckFlow[sink_25,innode_8] -36
WCcheckFlow[sink_6,sink_7] -3
WCcheckFlow[sink_6,sink_22] 2
WCcheckFlow[sink_7,sink_24] 3
WCcheckFlow[sink_22,sink_1] 1
WCcheckFlow[sink_24,sink_21] 2
WCcheckFlow[sink_21,sink_12] 1
WCcheckFlow[sink_7,sink_5] -7
WCcheckFlow[sink_5,sink_17] -8
WCcheckFlow[sink_17,sink_4] -11
WCcheckFlow[sink_17,sink_8] 2
WCcheckFlow[sink_3,sink_23] 1
WCcheckFlow[sink_8,sink_20] 1
WCcheckFlow[sink_25,sink_20] 0
WCcheckFlow[sink_25,sink_15] 6
WCcheckFlow[sink_15,sink_29] 4
WCcheckFlow[sink_29,sink_28] 1
WCcheckFlow[sink_29,sink_2] 0
WCcheckFlow[sink_2,sink_15] -1
WCcheckFlow[sink_29,innode_7] 2
WCcheckFlow[innode_4,sink_19] -4
WCcheckFlow[sink_19,innode_3] -5
WCcheckFlow[innode_4,innode_5] 2
WCcheckFlow[sink_27,innode_5] -1
WCcheckFlow[sink_27,sink_19] 0
WCcheckFlow[sink_10,sink_11] 3
WCcheckFlow[sink_10,innode_2] 1
WCcheckFlow[sink_10,innode_3] 6
WCcheckFlow[innode_6,sink_25] -14
WCcheckFlow[sink_11,innode_1] 2
WCcheckFlow[sink_19,innode_2] 0
WCcheckFlow[source_3,innode_4] -1
WCcheckFlow[source_2,innode_7] -1
WCcheckFlow[sink_3,innode_8] 37
